N = 8;
H = 5;
T = 2;

avail = array3d(1..N, 1..H, 1..T, [10, 5, 1, 1, 9, 10, 9, 1, 4, 10, 4, 3, 0, 7, 2, 3, 5, 8, 9, 9, 1, 9, 3, 3, 6, 8, 6, 7, 4, 10, 6, 3, 8, 10, 10, 3, 10, 5, 2, 8, 1, 3, 6, 6, 7, 2, 4, 10, 6, 5, 5, 2, 3, 2, 1, 0, 0, 2, 9, 8, 6, 2, 3, 7, 10, 9, 0, 0, 8, 7, 0, 8, 1, 4, 6, 0, 7, 8, 9, 0]);

r = array2d(1..H, 1..T, [2, 1, 3, 0, 0, 3, 2, 1, 3, 3]);
